The latest version of Julia in the `release` channel is 1.11.6+0.x64.linux.gnu. You currently have `1.11.2+0.x64.linux.gnu` installed. Run:

  juliaup update

in your terminal shell to install Julia 1.11.6+0.x64.linux.gnu and update the `release` channel to that version.
[info | PowerModels]: Suppressing information and warning messages for the rest of this session.  Use the Memento package for more fine-grained control of logging.

******************************************************************************
This program contains Ipopt, a library for large-scale nonlinear optimization.
 Ipopt is released as open source code under the Eclipse Public License (EPL).
         For more information visit https://github.com/coin-or/Ipopt
******************************************************************************

This is Ipopt version 3.14.17, running with linear solver ma86.

Number of nonzeros in equality constraint Jacobian...:       84
Number of nonzeros in inequality constraint Jacobian.:       18
Number of nonzeros in Lagrangian Hessian.............:      140

Total number of variables............................:       23
                     variables with only lower bounds:        0
                variables with lower and upper bounds:       20
                     variables with only upper bounds:        0
Total number of equality constraints.................:       19
Total number of inequality constraints...............:        9
        inequality constraints with only lower bounds:        0
   inequality constraints with lower and upper bounds:        3
        inequality constraints with only upper bounds:        6

iter    objective    inf_pr   inf_du lg(mu)  ||d||  lg(rg) alpha_du alpha_pr  ls
   0  6.3291195e+00 1.09e+00 1.85e+01  -1.0 0.00e+00    -  0.00e+00 0.00e+00   0
   1  4.7957002e+03 1.69e-01 1.56e+02  -1.0 1.80e+00    -  5.78e-03 9.14e-01h  1
   2  4.8721137e+03 1.78e-01 1.42e+02  -1.0 5.80e-01    -  2.41e-01 9.20e-02h  1
   3  5.0264301e+03 1.55e-01 1.15e+02  -1.0 3.92e-01    -  5.48e-01 1.90e-01h  1

Number of Iterations....: 3

                                   (scaled)                 (unscaled)
Objective...............:   1.0052860164013827e+03    5.0264300820069129e+03
Dual infeasibility......:   1.1534362914062515e+02    5.7671814570312574e+02
Constraint violation....:   1.5483681851812631e-01    1.5483681851812631e-01
Variable bound violation:   0.0000000000000000e+00    0.0000000000000000e+00
Complementarity.........:   2.7617687600508439e+03    1.3808843800254219e+04
Overall NLP error.......:   2.7617687600508439e+03    1.3808843800254219e+04


Number of objective function evaluations             = 4
Number of objective gradient evaluations             = 4
Number of equality constraint evaluations            = 4
Number of inequality constraint evaluations          = 4
Number of equality constraint Jacobian evaluations   = 4
Number of inequality constraint Jacobian evaluations = 4
Number of Lagrangian Hessian evaluations             = 3
Total seconds in IPOPT                               = 2.183

EXIT: Maximum Number of Iterations Exceeded.
This is Ipopt version 3.14.17, running with linear solver ma86.

Number of nonzeros in equality constraint Jacobian...:  3194444
Number of nonzeros in inequality constraint Jacobian.:   756090
Number of nonzeros in Lagrangian Hessian.............:  5708220

Total number of variables............................:   674143
                     variables with only lower bounds:        0
                variables with lower and upper bounds:   595665
                     variables with only upper bounds:        0
Total number of equality constraints.................:   661017
Total number of inequality constraints...............:   378045
        inequality constraints with only lower bounds:        0
   inequality constraints with lower and upper bounds:   126015
        inequality constraints with only upper bounds:   252030

iter    objective    inf_pr   inf_du lg(mu)  ||d||  lg(rg) alpha_du alpha_pr  ls
   0  1.1628514e+07 3.31e+01 1.00e+02  -1.0 0.00e+00    -  0.00e+00 0.00e+00   0
   1  1.1704022e+07 3.27e+01 9.89e+01  -1.0 3.76e+01    -  8.62e-03 1.31e-02h  1
   2  1.1746862e+07 3.23e+01 9.83e+01  -1.0 2.07e+01    -  2.59e-03 1.23e-02h  1
   3  1.1820235e+07 3.15e+01 9.74e+01  -1.0 8.28e+01    -  5.93e-03 2.40e-02h  1
   4  1.1916748e+07 3.03e+01 9.59e+01  -1.0 6.23e+01    -  1.28e-02 3.70e-02h  1
   5  1.2042965e+07 2.86e+01 9.41e+01  -1.0 7.50e+01    -  1.77e-02 5.79e-02h  1
   6  1.2210547e+07 2.64e+01 9.10e+01  -1.0 1.05e+02    -  4.04e-02 7.69e-02h  1
   7  1.2454881e+07 2.36e+01 8.80e+01  -1.0 1.38e+02    -  4.47e-02 1.06e-01h  1
   8  1.2769207e+07 2.04e+01 8.77e+01  -1.0 1.61e+02    -  2.10e-02 1.34e-01h  1
   9  1.3053641e+07 1.79e+01 8.34e+01  -1.0 1.78e+02    -  5.73e-02 1.25e-01h  1
iter    objective    inf_pr   inf_du lg(mu)  ||d||  lg(rg) alpha_du alpha_pr  ls
  10  1.3394858e+07 1.50e+01 8.02e+01  -1.0 1.91e+02    -  4.97e-02 1.59e-01h  1
  11  1.3632007e+07 1.32e+01 7.77e+01  -1.0 1.98e+02    -  3.64e-02 1.21e-01h  1
  12  1.3852593e+07 1.16e+01 7.31e+01  -1.0 1.98e+02    -  6.20e-02 1.23e-01h  1
  13  1.3992054e+07 1.06e+01 7.01e+01  -1.0 2.03e+02    -  4.22e-02 8.63e-02h  1
  14  1.4196581e+07 9.14e+00 6.58e+01  -1.0 2.04e+02    -  6.04e-02 1.37e-01h  1
  15  1.4395866e+07 7.76e+00 5.91e+01  -1.0 2.03e+02    -  1.01e-01 1.51e-01h  1
  16  1.4618607e+07 6.25e+00 5.54e+01  -1.0 1.97e+02    -  5.48e-02 1.95e-01h  1
  17  1.4748239e+07 5.38e+00 4.82e+01  -1.0 1.86e+02    -  1.28e-01 1.39e-01h  1
  18  1.4880152e+07 4.49e+00 4.10e+01  -1.0 1.83e+02    -  1.47e-01 1.65e-01h  1
  19  1.5024995e+07 3.50e+00 3.26e+02  -1.0 1.88e+02    -  8.19e-02 2.19e-01h  1
iter    objective    inf_pr   inf_du lg(mu)  ||d||  lg(rg) alpha_du alpha_pr  ls
  20  1.5062305e+07 3.25e+00 1.47e+02  -1.0 1.80e+02    -  1.53e-01 7.31e-02h  1
  21  1.5148802e+07 2.63e+00 2.56e+02  -1.0 1.92e+02    -  1.01e-01 1.88e-01h  1
  22  1.5228401e+07 2.05e+00 3.49e+02  -1.0 2.03e+02    -  9.35e-02 2.23e-01h  1
  23  1.5245669e+07 1.92e+00 2.04e+02  -1.0 1.99e+02    -  2.08e-01 6.45e-02h  1
  24  1.5303978e+07 1.46e+00 1.84e+02  -1.0 1.93e+02    -  1.82e-01 2.36e-01h  1
  25  1.5350261e+07 1.08e+00 1.90e+02  -1.0 1.83e+02    -  1.19e-01 2.59e-01h  1
  26  1.5367527e+07 9.33e-01 1.48e+02  -1.0 1.79e+02    -  1.74e-01 1.39e-01h  1
  27  1.5375657e+07 8.58e-01 1.37e+02  -1.0 1.87e+02    -  1.45e-01 8.11e-02h  1
  28  1.5396278e+07 6.57e-01 1.07e+02  -1.0 1.95e+02    -  2.49e-01 2.34e-01h  1
  29  1.5410855e+07 4.98e-01 5.85e+01  -1.0 1.98e+02    -  2.01e-01 2.43e-01h  1
iter    objective    inf_pr   inf_du lg(mu)  ||d||  lg(rg) alpha_du alpha_pr  ls
  30  1.5416845e+07 4.21e-01 1.01e+02  -1.0 1.86e+02    -  1.93e-01 1.54e-01h  1
  31  1.5425139e+07 3.07e-01 8.89e+01  -1.0 1.85e+02    -  1.20e-01 2.71e-01h  1
  32  1.5427685e+07 2.69e-01 6.40e+01  -1.0 1.58e+02    -  1.51e-01 1.24e-01h  1
  33  1.5432094e+07 1.95e-01 5.71e+01  -1.0 1.71e+02    -  2.49e-01 2.75e-01h  1
  34  1.5436023e+07 1.22e-01 3.31e+01  -1.0 1.59e+02    -  3.83e-01 3.74e-01h  1
  35  1.5438279e+07 8.34e-02 1.49e+01  -1.0 1.30e+02    -  4.37e-01 3.17e-01h  1
  36  1.5440707e+07 4.74e-02 2.69e+01  -1.0 9.72e+01    -  5.79e-01 4.32e-01h  1
  37  1.5442792e+07 1.67e-02 7.36e+00  -1.0 5.96e+01    -  6.19e-01 6.48e-01h  1
  38  1.5444180e+07 3.91e-03 5.44e+00  -1.0 2.89e+01    -  1.00e+00 8.70e-01h  1
  39  1.5444425e+07 1.37e-04 2.58e-02  -1.0 5.18e+00    -  1.00e+00 1.00e+00h  1
iter    objective    inf_pr   inf_du lg(mu)  ||d||  lg(rg) alpha_du alpha_pr  ls
  40  1.5431027e+07 2.03e-03 1.16e+01  -2.5 9.86e+01    -  1.99e-01 1.43e-01f  1
  41  1.5419098e+07 3.69e-03 1.94e+01  -2.5 9.65e+01    -  1.81e-01 1.47e-01f  1
  42  1.5410076e+07 4.83e-03 1.09e+01  -2.5 9.99e+01    -  6.40e-02 1.26e-01f  1
  43  1.5399992e+07 5.96e-03 9.23e+00  -2.5 8.58e+01    -  1.61e-01 1.59e-01f  1
  44  1.5392896e+07 6.14e-03 8.38e+00  -2.5 7.74e+01    -  1.36e-01 1.28e-01f  1
  45  1.5386951e+07 6.15e-03 1.22e+01  -2.5 6.83e+01    -  6.10e-02 1.19e-01f  1
  46  1.5381975e+07 5.95e-03 6.60e+00  -2.5 6.52e+01    -  1.55e-01 1.10e-01f  1
  47  1.5375419e+07 5.71e-03 5.51e+00  -2.5 6.39e+01    -  1.52e-01 1.57e-01f  1
  48  1.5369036e+07 5.56e-03 1.18e+01  -2.5 6.24e+01    -  9.17e-02 1.71e-01f  1
  49  1.5363514e+07 6.18e-03 1.58e+01  -2.5 5.97e+01    -  1.19e-01 1.70e-01f  1
iter    objective    inf_pr   inf_du lg(mu)  ||d||  lg(rg) alpha_du alpha_pr  ls
  50  1.5360697e+07 6.00e-03 1.06e+01  -2.5 5.70e+01    -  1.40e-01 9.77e-02f  1
  51  1.5357440e+07 1.80e-02 9.40e+00  -2.5 5.77e+01    -  1.32e-01 1.19e-01f  1
  52  1.5354400e+07 1.74e-02 7.40e+00  -2.5 7.55e+01    -  1.49e-01 1.20e-01f  1
  53  1.5350860e+07 1.78e-02 9.38e+00  -2.5 7.05e+01    -  1.26e-01 1.53e-01f  1
  54  1.5349305e+07 1.39e-02 1.04e+01  -2.5 7.31e+01    -  1.77e-01 7.61e-02f  1
  55  1.5345640e+07 1.14e-02 9.71e+00  -2.5 7.45e+01    -  4.48e-02 1.82e-01f  1
  56  1.5342739e+07 2.18e-02 6.33e+00  -2.5 6.59e+01    -  2.48e-01 1.68e-01f  1
  57  1.5341179e+07 1.58e-02 5.83e+00  -2.5 5.78e+01    -  8.07e-02 9.71e-02f  1
  58  1.5339451e+07 1.58e-02 5.10e+00  -2.5 5.70e+01    -  1.35e-01 1.14e-01f  1
  59  1.5335901e+07 1.31e-02 4.86e+00  -2.5 4.36e+01    -  1.22e-01 2.47e-01f  1
iter    objective    inf_pr   inf_du lg(mu)  ||d||  lg(rg) alpha_du alpha_pr  ls
  60  1.5334679e+07 1.20e-02 4.16e+00  -2.5 2.52e+01    -  2.08e-01 1.05e-01f  1
  61  1.5330984e+07 8.45e-03 3.76e+00  -2.5 2.90e+01    -  2.41e-01 3.34e-01f  1
  62  1.5329852e+07 6.90e-03 3.35e+00  -2.5 2.97e+01    -  3.02e-01 1.38e-01f  1
  63  1.5328963e+07 5.69e-03 1.22e+01  -2.5 2.42e+01    -  4.21e-01 1.20e-01f  1
  64  1.5326960e+07 4.25e-03 7.74e+00  -2.5 2.08e+01    -  2.24e-01 2.89e-01f  1
  65  1.5325185e+07 3.60e-03 6.27e+00  -2.5 1.57e+01    -  4.69e-01 3.56e-01f  1
  66  1.5323581e+07 2.66e-03 4.10e+00  -2.5 8.31e+00    -  5.96e-01 4.73e-01h  1
  67  1.5322414e+07 1.56e-03 9.75e+00  -2.5 3.72e+00    -  1.00e+00 6.54e-01h  1
  68  1.5321815e+07 2.28e-04 6.80e-03  -2.5 1.54e+00    -  1.00e+00 1.00e+00h  1
  69  1.5321026e+07 5.15e-04 1.27e+01  -3.8 1.79e+01    -  2.02e-01 8.92e-02f  1
iter    objective    inf_pr   inf_du lg(mu)  ||d||  lg(rg) alpha_du alpha_pr  ls
  70  1.5319697e+07 1.39e-03 1.56e+01  -3.8 2.31e+01    -  2.03e-01 1.58e-01f  1
  71  1.5318577e+07 1.91e-03 2.45e+01  -3.8 2.31e+01    -  2.66e-01 1.56e-01f  1
  72  1.5317622e+07 2.08e-03 3.15e+01  -3.8 2.07e+01    -  3.12e-01 1.59e-01f  1
  73  1.5317267e+07 1.94e-03 3.22e+01  -3.8 3.45e+01    -  2.15e-01 7.24e-02f  1
  74  1.5317089e+07 1.86e-03 3.56e+01  -3.8 3.11e+01    -  1.51e-01 4.20e-02f  1
  75  1.5316402e+07 1.82e-03 2.51e+01  -3.8 3.04e+01    -  1.00e-01 1.76e-01f  1
  76  1.5316162e+07 1.76e-03 2.34e+01  -3.8 2.17e+01    -  5.36e-02 7.80e-02f  1
  77  1.5315738e+07 1.71e-03 1.93e+01  -3.8 1.77e+01    -  2.07e-01 1.52e-01f  1
  78  1.5315556e+07 1.61e-03 5.54e+01  -3.8 1.79e+01    -  3.52e-01 8.05e-02h  1
  79  1.5315263e+07 1.50e-03 6.97e+01  -3.8 1.70e+01    -  3.80e-01 1.49e-01h  1
iter    objective    inf_pr   inf_du lg(mu)  ||d||  lg(rg) alpha_du alpha_pr  ls
  80  1.5314934e+07 1.42e-03 6.35e+01  -3.8 1.56e+01    -  3.46e-01 2.10e-01h  1
  81  1.5314746e+07 1.30e-03 6.56e+01  -3.8 1.28e+01    -  4.78e-01 1.67e-01h  1
  82  1.5314730e+07 1.28e-03 6.83e+01  -3.8 9.90e+00    -  1.97e-01 1.82e-02h  1
  83  1.5314496e+07 1.08e-03 6.05e+01  -3.8 9.15e+00    -  8.90e-01 2.73e-01f  1
  84  1.5314289e+07 8.15e-04 3.86e+01  -3.8 4.31e+00    -  5.16e-01 3.68e-01h  1
  85  1.5314173e+07 5.79e-04 2.51e+01  -3.8 2.43e+00    -  7.04e-01 3.60e-01h  1
  86  1.5314047e+07 2.80e-04 9.10e+00  -3.8 1.44e+00    -  1.00e+00 6.44e-01h  1
  87  1.5313984e+07 3.30e-05 3.63e-04  -3.8 5.33e-01    -  1.00e+00 1.00e+00h  1
  88  1.5313985e+07 8.23e-07 1.41e-05  -3.8 7.12e-02    -  1.00e+00 1.00e+00h  1
  89  1.5313930e+07 5.17e-05 5.21e+00  -5.0 2.91e+00    -  4.01e-01 2.34e-01f  1
iter    objective    inf_pr   inf_du lg(mu)  ||d||  lg(rg) alpha_du alpha_pr  ls
  90  1.5313884e+07 8.98e-05 5.81e+00  -5.0 2.91e+00    -  3.83e-01 2.75e-01h  1
  91  1.5313838e+07 1.16e-04 5.42e+00  -5.0 2.63e+00    -  5.32e-01 3.77e-01h  1
  92  1.5313813e+07 9.42e-05 4.09e+00  -5.0 2.08e+00    -  4.63e-01 3.54e-01h  1
  93  1.5313792e+07 6.34e-05 3.55e+00  -5.0 1.52e+00    -  9.31e-01 4.67e-01h  1
  94  1.5313770e+07 2.55e-05 2.61e-01  -5.0 9.41e-01    -  1.00e+00 9.31e-01h  1
  95  1.5313769e+07 6.13e-07 1.14e-05  -5.0 1.58e-01    -  1.00e+00 1.00e+00h  1

Number of Iterations....: 95

                                   (scaled)                 (unscaled)
Objective...............:   1.0890074447236257e+05    1.5313768941403450e+07
Dual infeasibility......:   1.1417263426238833e-05    1.6055109163824860e-03
Constraint violation....:   5.0193627491867954e-07    6.1345295990222759e-07
Variable bound violation:   1.3062277026882896e-03    1.3062277026882896e-03
Complementarity.........:   1.9526850913457038e-05    2.7458920000111055e-03
Overall NLP error.......:   1.9526850913457038e-05    2.7458920000111055e-03


Number of objective function evaluations             = 96
Number of objective gradient evaluations             = 96
Number of equality constraint evaluations            = 96
Number of inequality constraint evaluations          = 96
Number of equality constraint Jacobian evaluations   = 96
Number of inequality constraint Jacobian evaluations = 96
Number of Lagrangian Hessian evaluations             = 95
Total seconds in IPOPT (w/o function evaluations)    =    754.566
Total seconds in NLP function evaluations            =     21.138


Timing Statistics:

OverallAlgorithm....................:   1834.820 (sys:   1052.214 wall:    775.704)
 PrintProblemStatistics.............:      0.010 (sys:      0.000 wall:      0.010)
 InitializeIterates.................:     12.160 (sys:      3.258 wall:      8.490)
 UpdateHessian......................:      7.726 (sys:      3.934 wall:     11.660)
 OutputIteration....................:      0.004 (sys:      0.002 wall:      0.006)
 UpdateBarrierParameter.............:      0.601 (sys:      0.016 wall:      0.616)
 ComputeSearchDirection.............:   1794.256 (sys:   1043.941 wall:    733.791)
 ComputeAcceptableTrialPoint........:      9.771 (sys:      0.633 wall:     10.405)
 AcceptTrialPoint...................:      0.707 (sys:      0.028 wall:      0.735)
 CheckConvergence...................:      9.584 (sys:      0.402 wall:      9.989)
PDSystemSolverTotal.................:   1793.428 (sys:   1043.924 wall:    732.945)
 PDSystemSolverSolveOnce............:   1743.464 (sys:   1043.293 wall:    682.342)
 ComputeResiduals...................:     45.430 (sys:      0.626 wall:     46.065)
 StdAugSystemSolverMultiSolve.......:   1747.630 (sys:   1046.130 wall:    682.414)
 LinearSystemScaling................:      0.000 (sys:      0.000 wall:      0.000)
 LinearSystemSymbolicFactorization..:      2.908 (sys:      0.253 wall:      3.161)
 LinearSystemFactorization..........:    927.472 (sys:    182.400 wall:    445.592)
 LinearSystemBackSolve..............:    802.718 (sys:    857.533 wall:    213.192)
 LinearSystemStructureConverter.....:      9.185 (sys:      0.695 wall:      9.880)
  LinearSystemStructureConverterInit:      1.027 (sys:      0.174 wall:      1.201)
QualityFunctionSearch...............:      0.000 (sys:      0.000 wall:      0.000)
TryCorrector........................:      0.000 (sys:      0.000 wall:      0.000)
Task1...............................:      0.000 (sys:      0.000 wall:      0.000)
Task2...............................:      0.000 (sys:      0.000 wall:      0.000)
Task3...............................:      0.000 (sys:      0.000 wall:      0.000)
Task4...............................:      0.000 (sys:      0.000 wall:      0.000)
Task5...............................:      0.000 (sys:      0.000 wall:      0.000)
Task6...............................:      0.000 (sys:      0.000 wall:      0.000)
Function Evaluations................:     16.610 (sys:      4.526 wall:     21.138)
 Objective function.................:      0.006 (sys:      0.000 wall:      0.007)
 Objective function gradient........:      0.197 (sys:      0.028 wall:      0.226)
 Equality constraints...............:      3.635 (sys:      0.289 wall:      3.925)
 Inequality constraints.............:      0.097 (sys:      0.016 wall:      0.113)
 Equality constraint Jacobian.......:      0.573 (sys:      0.099 wall:      0.672)
 Inequality constraint Jacobian.....:      4.510 (sys:      0.161 wall:      4.672)
 Lagrangian Hessian.................:      7.591 (sys:      3.933 wall:     11.524)

EXIT: Optimal Solution Found.
[ Info: Loading cached JLD2 file
[ Info: Loading cached JLD2 file
